Problem:    ejercicio_recomendado_estandar_c
Rows:       4
Columns:    5
Non-zeros:  10
Status:     OPTIMAL
Objective:  z = 28 (MAXimum)

   No.   Row name   St   Activity     Lower bound   Upper bound    Marginal
------ ------------ -- ------------- ------------- ------------- -------------
     1 z            B             28                             
     2 procEq1      NS            16            16             =           1.5 
     3 procEq2      NS            24            24             =         < eps
     4 procEq3      NS             4             4             =             1 

   No. Column name  St   Activity     Lower bound   Upper bound    Marginal
------ ------------ -- ------------- ------------- ------------- -------------
     1 x1           B              4             0               
     2 x2           B              4             0               
     3 h1           NL             0             0                        -1.5 
     4 h2           B              4             0               
     5 h3           NL             0             0                          -1 

Karush-Kuhn-Tucker optimality conditions:

KKT.PE: max.abs.err = 0.00e+00 on row 0
        max.rel.err = 0.00e+00 on row 0
        High quality

KKT.PB: max.abs.err = 0.00e+00 on row 0
        max.rel.err = 0.00e+00 on row 0
        High quality

KKT.DE: max.abs.err = 0.00e+00 on column 0
        max.rel.err = 0.00e+00 on column 0
        High quality

KKT.DB: max.abs.err = 0.00e+00 on row 0
        max.rel.err = 0.00e+00 on row 0
        High quality

End of output
